p cnf 12 50 
11 6 2 0
6 -1 12 0
1 -8 5 0
9 -4 -7 0
-11 2 9 0
-3 -9 6 0
-12 7 -5 0
-4 -9 6 0
-9 -3 7 0
2 3 7 0
4 7 -5 0
9 11 3 0
-10 -5 -8 0
10 -9 7 0
-7 -6 3 0
12 7 -2 0
-6 -1 -7 0
-7 12 9 0
3 -1 7 0
-6 9 1 0
-10 -1 -5 0
-10 11 -8 0
-9 -11 -7 0
-7 -6 -5 0
-10 -9 12 0
-4 5 -6 0
-12 2 -5 0
-7 6 5 0
3 -1 -6 0
-10 -8 5 0
1 4 10 0
-11 5 -2 0
-8 9 6 0
7 -1 -5 0
9 -4 -1 0
4 8 6 0
-5 10 -4 0
-5 -9 7 0
8 2 -5 0
-8 4 -1 0
-12 3 -1 0
4 9 10 0
12 8 -4 0
6 3 -8 0
2 -8 -7 0
5 11 -8 0
1 2 -4 0
-9 -7 5 0
-11 -8 -10 0
2 -1 -12 0
